c instance by G2
c solution = 010011000000111101110
c Known solution cost is 957 
p cnf 21 30
w 63 0 33 41 54 71 35 89 63 6 23 94 9 77 11 92 93 0 10 54 39
3 13 12 0
-3 8 17 0
-15 -1 -18 0
9 5 -11 0
-21 -6 -20 0
-21 19 18 0
-4 -19 -15 0
15 7 -2 0
5 17 -20 0
-5 17 19 0
-5 8 20 0
-2 -8 17 0
-20 18 -11 0
18 12 -15 0
-5 -11 -3 0
21 -11 -18 0
-15 -9 11 0
-18 -10 -20 0
18 -14 -1 0
-16 4 14 0
-18 20 12 0
-15 1 6 0
4 -9 17 0
-12 -14 -2 0
9 8 2 0
13 -21 -10 0
-3 5 8 0
-17 7 -16 0
17 16 9 0
12 -18 -7 0
